
(set-option :produce-models true)
(set-option :inline-size-limit 10000)

(declare-const var0 String)

(push 1)
(assert (str.in.re var0 (re.* (re.range "\x01" "\xff"))))
(assert (str.in.re var0 (re.++ (re.++ re.begin-anchor (re.++ ((_ re.capture 1) (re.range "0" "9")) (re.++ ((_ re.capture 2) (str.to.re ".")) (re.++ (re.+ ((_ re.capture 3) (re.range "0" "9"))) (re.++ (re.union (str.to.re " ") (re.union (str.to.re "\u{0b}") (re.union (str.to.re "\u{0a}") (re.union (str.to.re "\u{0d}") (re.union (str.to.re "\u{09}") (str.to.re "\u{0c}")))))) (re.++ ((_ re.capture 4) (str.to.re "x")) (re.++ (re.union (str.to.re " ") (re.union (str.to.re "\u{0b}") (re.union (str.to.re "\u{0a}") (re.union (str.to.re "\u{0d}") (re.union (str.to.re "\u{09}") (str.to.re "\u{0c}")))))) (re.++ ((_ re.capture 5) (re.++ (str.to.re "1") (str.to.re "0"))) (re.++ ((_ re.capture 6) (re.union (re.union (str.to.re "e") (str.to.re "E")) (str.to.re "^"))) (re.++ (re.union (re.++ (str.to.re "") ((_ re.capture 7) (str.to.re "-"))) (str.to.re "")) (re.+ ((_ re.capture 8) (re.range "0" "9"))))))))))))) re.end-anchor)))	; match!==null
(assert (not (str.in.re ((_ str.extract 1) var0 (re.++ (re.++ re.begin-anchor (re.++ ((_ re.capture 1) (re.range "0" "9")) (re.++ ((_ re.capture 2) (str.to.re ".")) (re.++ (re.+ ((_ re.capture 3) (re.range "0" "9"))) (re.++ (re.union (str.to.re " ") (re.union (str.to.re "\u{0b}") (re.union (str.to.re "\u{0a}") (re.union (str.to.re "\u{0d}") (re.union (str.to.re "\u{09}") (str.to.re "\u{0c}")))))) (re.++ ((_ re.capture 4) (str.to.re "x")) (re.++ (re.union (str.to.re " ") (re.union (str.to.re "\u{0b}") (re.union (str.to.re "\u{0a}") (re.union (str.to.re "\u{0d}") (re.union (str.to.re "\u{09}") (str.to.re "\u{0c}")))))) (re.++ ((_ re.capture 5) (re.++ (str.to.re "1") (str.to.re "0"))) (re.++ ((_ re.capture 6) (re.union (re.union (str.to.re "e") (str.to.re "E")) (str.to.re "^"))) (re.++ (re.union (re.++ (str.to.re "") ((_ re.capture 7) (str.to.re "-"))) (str.to.re "")) (re.+ ((_ re.capture 8) (re.range "0" "9"))))))))))))) re.end-anchor)) (str.to.re "\x00"))))
;match[1]!==null
(assert (str.in.re ((_ str.extract 1) var0 (re.++ (re.++ re.begin-anchor (re.++ ((_ re.capture 1) (re.range "0" "9")) (re.++ ((_ re.capture 2) (str.to.re ".")) (re.++ (re.+ ((_ re.capture 3) (re.range "0" "9"))) (re.++ (re.union (str.to.re " ") (re.union (str.to.re "\u{0b}") (re.union (str.to.re "\u{0a}") (re.union (str.to.re "\u{0d}") (re.union (str.to.re "\u{09}") (str.to.re "\u{0c}")))))) (re.++ ((_ re.capture 4) (str.to.re "x")) (re.++ (re.union (str.to.re " ") (re.union (str.to.re "\u{0b}") (re.union (str.to.re "\u{0a}") (re.union (str.to.re "\u{0d}") (re.union (str.to.re "\u{09}") (str.to.re "\u{0c}")))))) (re.++ ((_ re.capture 5) (re.++ (str.to.re "1") (str.to.re "0"))) (re.++ ((_ re.capture 6) (re.union (re.union (str.to.re "e") (str.to.re "E")) (str.to.re "^"))) (re.++ (re.union (re.++ (str.to.re "") ((_ re.capture 7) (str.to.re "-"))) (str.to.re "")) (re.+ ((_ re.capture 8) (re.range "0" "9"))))))))))))) re.end-anchor)) (re.++ re.all(re.+ (re.range "a" "z")) re.all) ))
;/[a-z]+/.test(match[1]) == true
(check-sat)
(get-model)
(pop 1)
(push 1)
(assert (str.in.re var0 (re.* (re.range "\x01" "\xff"))))
(assert (str.in.re var0 (re.++ (re.++ re.begin-anchor (re.++ ((_ re.capture 1) (re.range "0" "9")) (re.++ ((_ re.capture 2) (str.to.re ".")) (re.++ (re.+ ((_ re.capture 3) (re.range "0" "9"))) (re.++ (re.union (str.to.re " ") (re.union (str.to.re "\u{0b}") (re.union (str.to.re "\u{0a}") (re.union (str.to.re "\u{0d}") (re.union (str.to.re "\u{09}") (str.to.re "\u{0c}")))))) (re.++ ((_ re.capture 4) (str.to.re "x")) (re.++ (re.union (str.to.re " ") (re.union (str.to.re "\u{0b}") (re.union (str.to.re "\u{0a}") (re.union (str.to.re "\u{0d}") (re.union (str.to.re "\u{09}") (str.to.re "\u{0c}")))))) (re.++ ((_ re.capture 5) (re.++ (str.to.re "1") (str.to.re "0"))) (re.++ ((_ re.capture 6) (re.union (re.union (str.to.re "e") (str.to.re "E")) (str.to.re "^"))) (re.++ (re.union (re.++ (str.to.re "") ((_ re.capture 7) (str.to.re "-"))) (str.to.re "")) (re.+ ((_ re.capture 8) (re.range "0" "9"))))))))))))) re.end-anchor)))	; match!==null
(assert (not (str.in.re ((_ str.extract 1) var0 (re.++ (re.++ re.begin-anchor (re.++ ((_ re.capture 1) (re.range "0" "9")) (re.++ ((_ re.capture 2) (str.to.re ".")) (re.++ (re.+ ((_ re.capture 3) (re.range "0" "9"))) (re.++ (re.union (str.to.re " ") (re.union (str.to.re "\u{0b}") (re.union (str.to.re "\u{0a}") (re.union (str.to.re "\u{0d}") (re.union (str.to.re "\u{09}") (str.to.re "\u{0c}")))))) (re.++ ((_ re.capture 4) (str.to.re "x")) (re.++ (re.union (str.to.re " ") (re.union (str.to.re "\u{0b}") (re.union (str.to.re "\u{0a}") (re.union (str.to.re "\u{0d}") (re.union (str.to.re "\u{09}") (str.to.re "\u{0c}")))))) (re.++ ((_ re.capture 5) (re.++ (str.to.re "1") (str.to.re "0"))) (re.++ ((_ re.capture 6) (re.union (re.union (str.to.re "e") (str.to.re "E")) (str.to.re "^"))) (re.++ (re.union (re.++ (str.to.re "") ((_ re.capture 7) (str.to.re "-"))) (str.to.re "")) (re.+ ((_ re.capture 8) (re.range "0" "9"))))))))))))) re.end-anchor)) (str.to.re "\x00"))))	
;match[1]!==null
(assert (not (str.in.re ((_ str.extract 1) var0 (re.++ (re.++ re.begin-anchor (re.++ ((_ re.capture 1) (re.range "0" "9")) (re.++ ((_ re.capture 2) (str.to.re ".")) (re.++ (re.+ ((_ re.capture 3) (re.range "0" "9"))) (re.++ (re.union (str.to.re " ") (re.union (str.to.re "\u{0b}") (re.union (str.to.re "\u{0a}") (re.union (str.to.re "\u{0d}") (re.union (str.to.re "\u{09}") (str.to.re "\u{0c}")))))) (re.++ ((_ re.capture 4) (str.to.re "x")) (re.++ (re.union (str.to.re " ") (re.union (str.to.re "\u{0b}") (re.union (str.to.re "\u{0a}") (re.union (str.to.re "\u{0d}") (re.union (str.to.re "\u{09}") (str.to.re "\u{0c}")))))) (re.++ ((_ re.capture 5) (re.++ (str.to.re "1") (str.to.re "0"))) (re.++ ((_ re.capture 6) (re.union (re.union (str.to.re "e") (str.to.re "E")) (str.to.re "^"))) (re.++ (re.union (re.++ (str.to.re "") ((_ re.capture 7) (str.to.re "-"))) (str.to.re "")) (re.+ ((_ re.capture 8) (re.range "0" "9"))))))))))))) re.end-anchor)) (re.++ re.all(re.+ (re.range "a" "z")) re.all) )))
;/[a-z]+/.test(match[1]) == false	
(check-sat)
(get-model)
(pop 1)
(push 1)
(assert (str.in.re var0 (re.* (re.range "\x01" "\xff"))))
(assert (str.in.re var0 (re.++ (re.++ re.begin-anchor (re.++ ((_ re.capture 1) (re.range "0" "9")) (re.++ ((_ re.capture 2) (str.to.re ".")) (re.++ (re.+ ((_ re.capture 3) (re.range "0" "9"))) (re.++ (re.union (str.to.re " ") (re.union (str.to.re "\u{0b}") (re.union (str.to.re "\u{0a}") (re.union (str.to.re "\u{0d}") (re.union (str.to.re "\u{09}") (str.to.re "\u{0c}")))))) (re.++ ((_ re.capture 4) (str.to.re "x")) (re.++ (re.union (str.to.re " ") (re.union (str.to.re "\u{0b}") (re.union (str.to.re "\u{0a}") (re.union (str.to.re "\u{0d}") (re.union (str.to.re "\u{09}") (str.to.re "\u{0c}")))))) (re.++ ((_ re.capture 5) (re.++ (str.to.re "1") (str.to.re "0"))) (re.++ ((_ re.capture 6) (re.union (re.union (str.to.re "e") (str.to.re "E")) (str.to.re "^"))) (re.++ (re.union (re.++ (str.to.re "") ((_ re.capture 7) (str.to.re "-"))) (str.to.re "")) (re.+ ((_ re.capture 8) (re.range "0" "9"))))))))))))) re.end-anchor)))	; match!==null
(assert (str.in.re ((_ str.extract 1) var0 (re.++ (re.++ re.begin-anchor (re.++ ((_ re.capture 1) (re.range "0" "9")) (re.++ ((_ re.capture 2) (str.to.re ".")) (re.++ (re.+ ((_ re.capture 3) (re.range "0" "9"))) (re.++ (re.union (str.to.re " ") (re.union (str.to.re "\u{0b}") (re.union (str.to.re "\u{0a}") (re.union (str.to.re "\u{0d}") (re.union (str.to.re "\u{09}") (str.to.re "\u{0c}")))))) (re.++ ((_ re.capture 4) (str.to.re "x")) (re.++ (re.union (str.to.re " ") (re.union (str.to.re "\u{0b}") (re.union (str.to.re "\u{0a}") (re.union (str.to.re "\u{0d}") (re.union (str.to.re "\u{09}") (str.to.re "\u{0c}")))))) (re.++ ((_ re.capture 5) (re.++ (str.to.re "1") (str.to.re "0"))) (re.++ ((_ re.capture 6) (re.union (re.union (str.to.re "e") (str.to.re "E")) (str.to.re "^"))) (re.++ (re.union (re.++ (str.to.re "") ((_ re.capture 7) (str.to.re "-"))) (str.to.re "")) (re.+ ((_ re.capture 8) (re.range "0" "9"))))))))))))) re.end-anchor)) (str.to.re "\x00")))
;match[1]==null
(check-sat)
(get-model)
(pop 1)
(push 1)
(assert (str.in.re var0 (re.* (re.range "\x01" "\xff"))))
(assert (not (str.in.re var0 (re.++ (re.++ re.begin-anchor (re.++ ((_ re.capture 1) (re.range "0" "9")) (re.++ ((_ re.capture 2) (str.to.re ".")) (re.++ (re.+ ((_ re.capture 3) (re.range "0" "9"))) (re.++ (re.union (str.to.re " ") (re.union (str.to.re "\u{0b}") (re.union (str.to.re "\u{0a}") (re.union (str.to.re "\u{0d}") (re.union (str.to.re "\u{09}") (str.to.re "\u{0c}")))))) (re.++ ((_ re.capture 4) (str.to.re "x")) (re.++ (re.union (str.to.re " ") (re.union (str.to.re "\u{0b}") (re.union (str.to.re "\u{0a}") (re.union (str.to.re "\u{0d}") (re.union (str.to.re "\u{09}") (str.to.re "\u{0c}")))))) (re.++ ((_ re.capture 5) (re.++ (str.to.re "1") (str.to.re "0"))) (re.++ ((_ re.capture 6) (re.union (re.union (str.to.re "e") (str.to.re "E")) (str.to.re "^"))) (re.++ (re.union (re.++ (str.to.re "") ((_ re.capture 7) (str.to.re "-"))) (str.to.re "")) (re.+ ((_ re.capture 8) (re.range "0" "9"))))))))))))) re.end-anchor))))	; match == null
(check-sat)
(get-model)
(pop 1)
(exit)
